SAMPLE

VEHICLE
NUMBER     CAPACITY
  25         30

CUSTOMER
CUST NO.  XCOORD.   YCOORD.    DEMAND   READY TIME  DUE DATE   SERVICE   TIME
 
    0      0         0          0          0       300          0   
    1      12         5         5        10        40         30   
    2      15         8         8        20        60         30   
    3      10         2         6         0        50         30   
    4      -10         5         7        50        100         30   
    5      -12         8         4         30         70         30   
    6      -8         12         9        60        90         30   
    7      0         15         10        80        120         30   
    8      -5         -10         5        40        100         30   
    9      -8         -12         8        100        150         30   
   10      -10         -15         6        120        180         30   
    
